outdated/presolvedG.lp
\ Model _pre
\ LP format - for model browsing. Use MPS format to capture full model detail.
Minimize
  8 x185 + 8 x186 + 8 x184 + 12 x188 + 12 x189 + 12 x187 + 20 x191 + 20 x192
   + 20 x190
Subject To
 r_2: - 0.6 x185 - 0.6 x188 - 0.6 x191 + x6 + x4 - 0.6 x182 = 0
 r_3: - 0.4 x185 - 0.4 x188 - 0.4 x191 - 0.4 x182 + x8 + x9 + x7 = 0
 r_4: - 0.5 x186 - 0.5 x189 - 0.5 x192 + x11 + x10 - 0.5 x183 = 0
 r_5: - 0.5 x186 - 0.5 x189 - 0.5 x192 - 0.5 x183 + x14 + x15 + x13 = 0
 r_6: - x184 - x187 - x190 + x17 + x18 + x16 - x181 = 0
 r_8: - 0.5 x6 - 0.6 x14 + x24 + x22 = 0
 r_9: - x4 - x8 - 0.6 x17 + x27 + x25 = 0
 r_10: - 0.5 x9 - 0.4 x11 + x29 + x28 = 0
 r_11: - 0.5 x9 - 0.4 x14 + x32 + x33 + x31 = 0
 r_12: - x7 - 0.4 x17 + x35 + x36 + x34 = 0
 r_13: - x10 - x15 - 0.5 x18 + x38 + x37 = 0
 r_14: - x13 - 0.5 x18 + x41 + x42 + x40 = 0
 r_15: - x16 + x44 + x45 + x43 = 0
 r_16: - 0.5 x6 - 0.6 x11 - x24 - 0.5 x27 - x29 - 0.6 x38 + x46 = 0
 r_17: - x22 - 0.5 x27 - x32 - 0.6 x41 + x51 + x49 = 0
 r_18: - x25 - x35 - 0.6 x44 + x54 + x52 = 0
 r_20: - x31 - 0.5 x36 - 0.4 x41 + x59 + x60 + x58 = 0
 r_21: - x34 - 0.4 x44 + x62 + x63 + x61 = 0
 r_22: - x37 - x42 - 0.5 x45 + x65 + x64 = 0
 r_23: - x40 - 0.5 x45 + x68 + x69 + x67 = 0
 r_24: - x43 + x71 + x72 + x70 = 0
 r_25: - x46 - x51 - 0.5 x54 - x56 - 0.6 x65 + x73 = 0
 r_26: - x49 - 0.5 x54 - x59 - 0.6 x68 + x78 + x76 = 0
 r_27: - x52 - x62 - 0.6 x71 + x81 + x79 = 0
 r_28: - x55 - x60 - 0.5 x63 - 0.4 x65 + x83 + x82 = 0
 r_29: - x58 - 0.5 x63 - 0.4 x68 + x86 + x87 + x85 = 0
 r_30: - x61 - 0.4 x71 + x89 + x90 + x88 = 0
 r_31: - x64 - x69 - 0.5 x72 + x92 + x91 = 0
 r_32: - x67 - 0.5 x72 + x95 + x96 + x94 = 0
 r_33: - x70 + x98 + x99 + x126 + x153 + x178 = 0
 r_34: - x73 - x78 - 0.5 x81 - x83 - 0.6 x92 + x100 = 0
 r_35: - x76 - 0.5 x81 - x86 - 0.6 x95 + x105 + x103 = 0
 r_36: - x79 - x89 - 0.6 x98 + x108 + x135 + x160 = 0
 r_37: - x82 - x87 - 0.5 x90 - 0.4 x92 + x109 = 0
 r_38: - x85 - 0.5 x90 - 0.4 x95 + x114 + x112 = 0
 r_39: - x88 - 0.4 x98 + x117 + x144 + x169 = 0
 r_40: - x91 - x96 - 0.5 x99 + x118 = 0
 r_41: - x94 - 0.5 x99 + x123 + x121 = 0
 r_43: - x100 - x105 - 0.5 x108 + x127 = 0
 r_44: - x103 - 0.5 x108 + x132 + x130 = 0
 r_46: - x109 - x114 - 0.5 x117 + x136 = 0
 r_47: - x112 - 0.5 x117 + x141 + x139 = 0
 r_49: - x118 - x123 - 0.5 x126 + x145 = 0
 r_50: - x121 - 0.5 x126 + x150 + x148 = 0
 r_52: - x127 - x132 - 0.5 x135 + x154 = 0
 r_55: - x136 - x141 - 0.5 x144 + x163 = 0
 r_58: - x145 - x150 - 0.5 x153 + x172 = 0
 r_61: x182 + x183 + x181 - x154 = 0
 r_62: x185 + x186 + x184 - x130 - 0.5 x135 - x160 = 0
 r_63: x188 + x189 + x187 - x163 - x172 = 0
 r_64: x191 + x192 + x190 - x139 - 0.5 x144 - x148 - 0.5 x153 - x169 - x178
   = 0
 r_65: 2 x185 + 2 x186 + x184 + 2 x188 + 2 x189 + x187 + 2 x191 + 2 x192
   + x190 + 2.5 x6 + x4 + 2 x182 + x8 + 2 x9 + x7 + 2.6 x11 + x10 + 2 x183
   + 2 x14 + x15 + x13 + 2 x17 + 2 x18 + x16 + x181 + x24 + x22 + 2 x27
   + x25 + x29 + x28 + x32 + x33 + x31 + x35 + 2 x36 + x34 + 2 x38 + x37
   + 2 x41 + x42 + x40 + 2 x44 + 2 x45 + x43 + x46 + x51 + x49 + 2 x54
   + x52 + x56 + x55 + x59 + x60 + x58 + x62 + 2 x63 + x61 + 2 x65 + x64
   + 2 x68 + x69 + x67 + 2 x71 + 2 x72 + x70 + x73 + x78 + x76 + 2 x81
   + x79 + x83 + x82 + x86 + x87 + x85 + x89 + 2 x90 + x88 + 2 x92 + x91
   + 2 x95 + x96 + x94 + 2 x98 + 2 x99 + x100 + x105 + x103 + 2 x108 + x109
   + x114 + x112 + 2 x117 + x118 + x123 + x121 + 3 x126 + x127 + x132
   + 2 x130 + 3.5 x135 + x136 + x141 + 2 x139 + 3.5 x144 + x145 + x150
   + 2 x148 + 4.5 x153 + x154 + 3 x160 + x163 + 3 x169 + x172 + 4 x178 = 1
Bounds
 x185 <= 0.5015
 x186 <= 0.5015
 x184 <= 1.002
 x188 <= 0.5015
 x189 <= 0.5015
 x187 <= 1.002
 x191 <= 0.5015
 x192 <= 0.5015
 x190 <= 1.002
 x6 <= 0.4014
 x4 <= 1.002
 x182 <= 0.5015
 x8 <= 1.002
 x9 <= 0.5015
 x7 <= 1.002
 x11 <= 0.386
 x10 <= 1.002
 x183 <= 0.5015
 x14 <= 0.5015
 x15 <= 1.002
 x13 <= 1.002
 x17 <= 0.5015
 x18 <= 0.5015
 x16 <= 1.002
 x181 <= 1.002
 x24 <= 1.002
 x22 <= 1.002
 x27 <= 0.5015
 x25 <= 1.002
 x29 <= 1.002
 x28 <= 1.002
 x32 <= 1.002
 x33 <= 1.002
 x31 <= 1.002
 x35 <= 1.002
 x36 <= 0.5015
 x34 <= 1.002
 x38 <= 0.5015
 x37 <= 1.002
 x41 <= 0.5015
 x42 <= 1.002
 x40 <= 1.002
 x44 <= 0.5015
 x45 <= 0.5015
 x43 <= 1.002
 x46 <= 1.002
 x51 <= 1.002
 x49 <= 1.002
 x54 <= 0.5015
 x52 <= 1.002
 x56 <= 1.002
 x55 <= 1.002
 x59 <= 1.002
 x60 <= 1.002
 x58 <= 1.002
 x62 <= 1.002
 x63 <= 0.5015
 x61 <= 1.002
 x65 <= 0.5015
 x64 <= 1.002
 x68 <= 0.5015
 x69 <= 1.002
 x67 <= 1.002
 x71 <= 0.5015
 x72 <= 0.5015
 x70 <= 1.002
 x73 <= 1.002
 x78 <= 1.002
 x76 <= 1.002
 x81 <= 0.5015
 x79 <= 1.002
 x83 <= 1.002
 x82 <= 1.002
 x86 <= 1.002
 x87 <= 1.002
 x85 <= 1.002
 x89 <= 1.002
 x90 <= 0.5015
 x88 <= 1.002
 x92 <= 0.5015
 x91 <= 1.002
 x95 <= 0.5015
 x96 <= 1.002
 x94 <= 1.002
 x98 <= 0.5015
 x99 <= 0.5015
 x100 <= 1.002
 x105 <= 1.002
 x103 <= 1.002
 x108 <= 0.5015
 x109 <= 1.002
 x114 <= 1.002
 x112 <= 1.002
 x117 <= 0.5015
 x118 <= 1.002
 x123 <= 1.002
 x121 <= 1.002
 x126 <= 0.3346666666666667
 x127 <= 1.002
 x132 <= 1.002
 x130 <= 0.5015
 x135 <= 0.287
 x136 <= 1.002
 x141 <= 1.002
 x139 <= 0.5015
 x144 <= 0.287
 x145 <= 1.002
 x150 <= 1.002
 x148 <= 0.5015
 x153 <= 0.2234444444444444
 x154 <= 1.002
 x160 <= 0.3346666666666667
 x163 <= 1.002
 x169 <= 0.3346666666666667
 x172 <= 1.002
 x178 <= 0.25125
End
