outdated/presolvedG.mps
NAME _pre
ROWS
 N  OBJ
 E  r_2     
 E  r_3     
 E  r_4     
 E  r_5     
 E  r_6     
 E  r_8     
 E  r_9     
 E  r_10    
 E  r_11    
 E  r_12    
 E  r_13    
 E  r_14    
 E  r_15    
 E  r_16    
 E  r_17    
 E  r_18    
 E  r_20    
 E  r_21    
 E  r_22    
 E  r_23    
 E  r_24    
 E  r_25    
 E  r_26    
 E  r_27    
 E  r_28    
 E  r_29    
 E  r_30    
 E  r_31    
 E  r_32    
 E  r_33    
 E  r_34    
 E  r_35    
 E  r_36    
 E  r_37    
 E  r_38    
 E  r_39    
 E  r_40    
 E  r_41    
 E  r_43    
 E  r_44    
 E  r_46    
 E  r_47    
 E  r_49    
 E  r_50    
 E  r_52    
 E  r_55    
 E  r_58    
 E  r_61    
 E  r_62    
 E  r_63    
 E  r_64    
 E  r_65    
COLUMNS
    x185      OBJ       8
    x185      r_2       -0.6
    x185      r_3       -0.4
    x185      r_62      1
    x185      r_65      2
    x186      OBJ       8
    x186      r_4       -0.5
    x186      r_5       -0.5
    x186      r_62      1
    x186      r_65      2
    x184      OBJ       8
    x184      r_6       -1
    x184      r_62      1
    x184      r_65      1
    x188      OBJ       12
    x188      r_2       -0.6
    x188      r_3       -0.4
    x188      r_63      1
    x188      r_65      2
    x189      OBJ       12
    x189      r_4       -0.5
    x189      r_5       -0.5
    x189      r_63      1
    x189      r_65      2
    x187      OBJ       12
    x187      r_6       -1
    x187      r_63      1
    x187      r_65      1
    x191      OBJ       20
    x191      r_2       -0.6
    x191      r_3       -0.4
    x191      r_64      1
    x191      r_65      2
    x192      OBJ       20
    x192      r_4       -0.5
    x192      r_5       -0.5
    x192      r_64      1
    x192      r_65      2
    x190      OBJ       20
    x190      r_6       -1
    x190      r_64      1
    x190      r_65      1
    x6        r_16      -0.5
    x6        r_2       1
    x6        r_8       -0.5
    x6        r_65      2.5
    x4        r_2       1
    x4        r_9       -1
    x4        r_65      1
    x182      r_2       -0.6
    x182      r_3       -0.4
    x182      r_61      1
    x182      r_65      2
    x8        r_3       1
    x8        r_9       -1
    x8        r_65      1
    x9        r_3       1
    x9        r_10      -0.5
    x9        r_11      -0.5
    x9        r_65      2
    x7        r_3       1
    x7        r_12      -1
    x7        r_65      1
    x11       r_16      -0.6
    x11       r_4       1
    x11       r_10      -0.4
    x11       r_65      2.6
    x10       r_4       1
    x10       r_13      -1
    x10       r_65      1
    x183      r_4       -0.5
    x183      r_5       -0.5
    x183      r_61      1
    x183      r_65      2
    x14       r_5       1
    x14       r_8       -0.6
    x14       r_11      -0.4
    x14       r_65      2
    x15       r_5       1
    x15       r_13      -1
    x15       r_65      1
    x13       r_5       1
    x13       r_14      -1
    x13       r_65      1
    x17       r_6       1
    x17       r_9       -0.6
    x17       r_12      -0.4
    x17       r_65      2
    x18       r_6       1
    x18       r_13      -0.5
    x18       r_14      -0.5
    x18       r_65      2
    x16       r_6       1
    x16       r_15      -1
    x16       r_65      1
    x181      r_6       -1
    x181      r_61      1
    x181      r_65      1
    x24       r_8       1
    x24       r_16      -1
    x24       r_65      1
    x22       r_8       1
    x22       r_17      -1
    x22       r_65      1
    x27       r_9       1
    x27       r_16      -0.5
    x27       r_17      -0.5
    x27       r_65      2
    x25       r_9       1
    x25       r_18      -1
    x25       r_65      1
    x29       r_10      1
    x29       r_16      -1
    x29       r_65      1
    x28       r_10      1
    x28       r_65      1
    x32       r_11      1
    x32       r_17      -1
    x32       r_65      1
    x33       r_11      1
    x33       r_65      1
    x31       r_11      1
    x31       r_20      -1
    x31       r_65      1
    x35       r_12      1
    x35       r_18      -1
    x35       r_65      1
    x36       r_12      1
    x36       r_20      -0.5
    x36       r_65      2
    x34       r_12      1
    x34       r_21      -1
    x34       r_65      1
    x38       r_13      1
    x38       r_16      -0.6
    x38       r_65      2
    x37       r_13      1
    x37       r_22      -1
    x37       r_65      1
    x41       r_14      1
    x41       r_17      -0.6
    x41       r_20      -0.4
    x41       r_65      2
    x42       r_14      1
    x42       r_22      -1
    x42       r_65      1
    x40       r_14      1
    x40       r_23      -1
    x40       r_65      1
    x44       r_15      1
    x44       r_18      -0.6
    x44       r_21      -0.4
    x44       r_65      2
    x45       r_15      1
    x45       r_22      -0.5
    x45       r_23      -0.5
    x45       r_65      2
    x43       r_15      1
    x43       r_24      -1
    x43       r_65      1
    x46       r_16      1
    x46       r_25      -1
    x46       r_65      1
    x51       r_17      1
    x51       r_25      -1
    x51       r_65      1
    x49       r_17      1
    x49       r_26      -1
    x49       r_65      1
    x54       r_18      1
    x54       r_25      -0.5
    x54       r_26      -0.5
    x54       r_65      2
    x52       r_18      1
    x52       r_27      -1
    x52       r_65      1
    x56       r_25      -1
    x56       r_65      1
    x55       r_28      -1
    x55       r_65      1
    x59       r_20      1
    x59       r_26      -1
    x59       r_65      1
    x60       r_20      1
    x60       r_28      -1
    x60       r_65      1
    x58       r_20      1
    x58       r_29      -1
    x58       r_65      1
    x62       r_21      1
    x62       r_27      -1
    x62       r_65      1
    x63       r_21      1
    x63       r_28      -0.5
    x63       r_29      -0.5
    x63       r_65      2
    x61       r_21      1
    x61       r_30      -1
    x61       r_65      1
    x65       r_22      1
    x65       r_25      -0.6
    x65       r_28      -0.4
    x65       r_65      2
    x64       r_22      1
    x64       r_31      -1
    x64       r_65      1
    x68       r_23      1
    x68       r_26      -0.6
    x68       r_29      -0.4
    x68       r_65      2
    x69       r_23      1
    x69       r_31      -1
    x69       r_65      1
    x67       r_23      1
    x67       r_32      -1
    x67       r_65      1
    x71       r_24      1
    x71       r_27      -0.6
    x71       r_30      -0.4
    x71       r_65      2
    x72       r_24      1
    x72       r_31      -0.5
    x72       r_32      -0.5
    x72       r_65      2
    x70       r_24      1
    x70       r_33      -1
    x70       r_65      1
    x73       r_25      1
    x73       r_34      -1
    x73       r_65      1
    x78       r_26      1
    x78       r_34      -1
    x78       r_65      1
    x76       r_26      1
    x76       r_35      -1
    x76       r_65      1
    x81       r_27      1
    x81       r_34      -0.5
    x81       r_35      -0.5
    x81       r_65      2
    x79       r_27      1
    x79       r_36      -1
    x79       r_65      1
    x83       r_28      1
    x83       r_34      -1
    x83       r_65      1
    x82       r_28      1
    x82       r_37      -1
    x82       r_65      1
    x86       r_29      1
    x86       r_35      -1
    x86       r_65      1
    x87       r_29      1
    x87       r_37      -1
    x87       r_65      1
    x85       r_29      1
    x85       r_38      -1
    x85       r_65      1
    x89       r_30      1
    x89       r_36      -1
    x89       r_65      1
    x90       r_30      1
    x90       r_37      -0.5
    x90       r_38      -0.5
    x90       r_65      2
    x88       r_30      1
    x88       r_39      -1
    x88       r_65      1
    x92       r_31      1
    x92       r_34      -0.6
    x92       r_37      -0.4
    x92       r_65      2
    x91       r_31      1
    x91       r_40      -1
    x91       r_65      1
    x95       r_32      1
    x95       r_35      -0.6
    x95       r_38      -0.4
    x95       r_65      2
    x96       r_32      1
    x96       r_40      -1
    x96       r_65      1
    x94       r_32      1
    x94       r_41      -1
    x94       r_65      1
    x98       r_33      1
    x98       r_36      -0.6
    x98       r_39      -0.4
    x98       r_65      2
    x99       r_33      1
    x99       r_40      -0.5
    x99       r_41      -0.5
    x99       r_65      2
    x100      r_34      1
    x100      r_43      -1
    x100      r_65      1
    x105      r_35      1
    x105      r_43      -1
    x105      r_65      1
    x103      r_35      1
    x103      r_44      -1
    x103      r_65      1
    x108      r_36      1
    x108      r_43      -0.5
    x108      r_44      -0.5
    x108      r_65      2
    x109      r_37      1
    x109      r_46      -1
    x109      r_65      1
    x114      r_38      1
    x114      r_46      -1
    x114      r_65      1
    x112      r_38      1
    x112      r_47      -1
    x112      r_65      1
    x117      r_39      1
    x117      r_46      -0.5
    x117      r_47      -0.5
    x117      r_65      2
    x118      r_40      1
    x118      r_49      -1
    x118      r_65      1
    x123      r_41      1
    x123      r_49      -1
    x123      r_65      1
    x121      r_41      1
    x121      r_50      -1
    x121      r_65      1
    x126      r_33      1
    x126      r_49      -0.5
    x126      r_50      -0.5
    x126      r_65      3
    x127      r_43      1
    x127      r_52      -1
    x127      r_65      1
    x132      r_44      1
    x132      r_52      -1
    x132      r_65      1
    x130      r_62      -1
    x130      r_44      1
    x130      r_65      2
    x135      r_36      1
    x135      r_62      -0.5
    x135      r_52      -0.5
    x135      r_65      3.5
    x136      r_46      1
    x136      r_55      -1
    x136      r_65      1
    x141      r_47      1
    x141      r_55      -1
    x141      r_65      1
    x139      r_64      -1
    x139      r_47      1
    x139      r_65      2
    x144      r_39      1
    x144      r_64      -0.5
    x144      r_55      -0.5
    x144      r_65      3.5
    x145      r_49      1
    x145      r_58      -1
    x145      r_65      1
    x150      r_50      1
    x150      r_58      -1
    x150      r_65      1
    x148      r_64      -1
    x148      r_50      1
    x148      r_65      2
    x153      r_33      1
    x153      r_64      -0.5
    x153      r_58      -0.5
    x153      r_65      4.5
    x154      r_52      1
    x154      r_61      -1
    x154      r_65      1
    x160      r_36      1
    x160      r_62      -1
    x160      r_65      3
    x163      r_55      1
    x163      r_63      -1
    x163      r_65      1
    x169      r_39      1
    x169      r_64      -1
    x169      r_65      3
    x172      r_58      1
    x172      r_63      -1
    x172      r_65      1
    x178      r_33      1
    x178      r_64      -1
    x178      r_65      4
RHS
    RHS1      r_65      1
BOUNDS
 UP BND1      x185      0.5015
 UP BND1      x186      0.5015
 UP BND1      x184      1.002
 UP BND1      x188      0.5015
 UP BND1      x189      0.5015
 UP BND1      x187      1.002
 UP BND1      x191      0.5015
 UP BND1      x192      0.5015
 UP BND1      x190      1.002
 UP BND1      x6        4.0140000000000003e-01
 UP BND1      x4        1.002
 UP BND1      x182      0.5015
 UP BND1      x8        1.002
 UP BND1      x9        0.5015
 UP BND1      x7        1.002
 UP BND1      x11       3.8599999999999995e-01
 UP BND1      x10       1.002
 UP BND1      x183      0.5015
 UP BND1      x14       0.5015
 UP BND1      x15       1.002
 UP BND1      x13       1.002
 UP BND1      x17       0.5015
 UP BND1      x18       0.5015
 UP BND1      x16       1.002
 UP BND1      x181      1.002
 UP BND1      x24       1.002
 UP BND1      x22       1.002
 UP BND1      x27       0.5015
 UP BND1      x25       1.002
 UP BND1      x29       1.002
 UP BND1      x28       1.002
 UP BND1      x32       1.002
 UP BND1      x33       1.002
 UP BND1      x31       1.002
 UP BND1      x35       1.002
 UP BND1      x36       0.5015
 UP BND1      x34       1.002
 UP BND1      x38       0.5015
 UP BND1      x37       1.002
 UP BND1      x41       0.5015
 UP BND1      x42       1.002
 UP BND1      x40       1.002
 UP BND1      x44       0.5015
 UP BND1      x45       0.5015
 UP BND1      x43       1.002
 UP BND1      x46       1.002
 UP BND1      x51       1.002
 UP BND1      x49       1.002
 UP BND1      x54       0.5015
 UP BND1      x52       1.002
 UP BND1      x56       1.002
 UP BND1      x55       1.002
 UP BND1      x59       1.002
 UP BND1      x60       1.002
 UP BND1      x58       1.002
 UP BND1      x62       1.002
 UP BND1      x63       0.5015
 UP BND1      x61       1.002
 UP BND1      x65       0.5015
 UP BND1      x64       1.002
 UP BND1      x68       0.5015
 UP BND1      x69       1.002
 UP BND1      x67       1.002
 UP BND1      x71       0.5015
 UP BND1      x72       0.5015
 UP BND1      x70       1.002
 UP BND1      x73       1.002
 UP BND1      x78       1.002
 UP BND1      x76       1.002
 UP BND1      x81       0.5015
 UP BND1      x79       1.002
 UP BND1      x83       1.002
 UP BND1      x82       1.002
 UP BND1      x86       1.002
 UP BND1      x87       1.002
 UP BND1      x85       1.002
 UP BND1      x89       1.002
 UP BND1      x90       0.5015
 UP BND1      x88       1.002
 UP BND1      x92       0.5015
 UP BND1      x91       1.002
 UP BND1      x95       0.5015
 UP BND1      x96       1.002
 UP BND1      x94       1.002
 UP BND1      x98       0.5015
 UP BND1      x99       0.5015
 UP BND1      x100      1.002
 UP BND1      x105      1.002
 UP BND1      x103      1.002
 UP BND1      x108      0.5015
 UP BND1      x109      1.002
 UP BND1      x114      1.002
 UP BND1      x112      1.002
 UP BND1      x117      0.5015
 UP BND1      x118      1.002
 UP BND1      x123      1.002
 UP BND1      x121      1.002
 UP BND1      x126      3.3466666666666667e-01
 UP BND1      x127      1.002
 UP BND1      x132      1.002
 UP BND1      x130      0.5015
 UP BND1      x135      0.287
 UP BND1      x136      1.002
 UP BND1      x141      1.002
 UP BND1      x139      0.5015
 UP BND1      x144      0.287
 UP BND1      x145      1.002
 UP BND1      x150      1.002
 UP BND1      x148      0.5015
 UP BND1      x153      2.2344444444444445e-01
 UP BND1      x154      1.002
 UP BND1      x160      3.3466666666666667e-01
 UP BND1      x163      1.002
 UP BND1      x169      3.3466666666666667e-01
 UP BND1      x172      1.002
 UP BND1      x178      0.25125
ENDATA
